scheduleLength  = 7;
numberEmployees = 29;
numberShifts    = 3;
minDaysOff      = 2;
maxDaysOff      = 4;
minDaysWork     = 4;
maxDaysWork     = 7;
shiftNames      = ["D", "A", "N"];
minDaysShift    = [2, 2, 2];
maxDaysShift    = [6, 5, 4];

requirements = [| 15, 13, 14, 15, 13, 15, 14,
                | 5, 5, 5, 5, 6, 4, 5,
                | 1, 1, 1, 1, 1, 0, 1 |];

numberForbiddenShifts2 = 3;
forbiddenShifts2 = [| 3, 1,
                    | 3, 2,
                    | 2, 1 |];

numberForbiddenShifts3 = 0;
forbiddenShifts3 = array2d({},1..2,[]);

